certificates/rado_a5_c178_N35.cnf
c Rad2 upper bound instance: x1 + 5*x2 - x3 = 178, interval [1,35]
p cnf 35 238
1 4 35 0
-1 -4 -35 0
2 5 35 0
-2 -5 -35 0
3 6 35 0
-3 -6 -35 0
4 7 35 0
-4 -7 -35 0
5 8 35 0
-5 -8 -35 0
1 9 34 0
-1 -9 -34 0
6 9 35 0
-6 -9 -35 0
2 10 34 0
-2 -10 -34 0
7 10 35 0
-7 -10 -35 0
3 11 34 0
-3 -11 -34 0
8 11 35 0
-8 -11 -35 0
4 12 34 0
-4 -12 -34 0
9 12 35 0
-9 -12 -35 0
5 13 34 0
-5 -13 -34 0
10 13 35 0
-10 -13 -35 0
1 14 33 0
-1 -14 -33 0
6 14 34 0
-6 -14 -34 0
11 14 35 0
-11 -14 -35 0
2 15 33 0
-2 -15 -33 0
7 15 34 0
-7 -15 -34 0
12 15 35 0
-12 -15 -35 0
3 16 33 0
-3 -16 -33 0
8 16 34 0
-8 -16 -34 0
13 16 35 0
-13 -16 -35 0
4 17 33 0
-4 -17 -33 0
9 17 34 0
-9 -17 -34 0
14 17 35 0
-14 -17 -35 0
5 18 33 0
-5 -18 -33 0
10 18 34 0
-10 -18 -34 0
15 18 35 0
-15 -18 -35 0
1 19 32 0
-1 -19 -32 0
6 19 33 0
-6 -19 -33 0
11 19 34 0
-11 -19 -34 0
16 19 35 0
-16 -19 -35 0
2 20 32 0
-2 -20 -32 0
7 20 33 0
-7 -20 -33 0
12 20 34 0
-12 -20 -34 0
17 20 35 0
-17 -20 -35 0
3 21 32 0
-3 -21 -32 0
8 21 33 0
-8 -21 -33 0
13 21 34 0
-13 -21 -34 0
18 21 35 0
-18 -21 -35 0
4 22 32 0
-4 -22 -32 0
9 22 33 0
-9 -22 -33 0
14 22 34 0
-14 -22 -34 0
19 22 35 0
-19 -22 -35 0
5 23 32 0
-5 -23 -32 0
10 23 33 0
-10 -23 -33 0
15 23 34 0
-15 -23 -34 0
20 23 35 0
-20 -23 -35 0
1 24 31 0
-1 -24 -31 0
6 24 32 0
-6 -24 -32 0
11 24 33 0
-11 -24 -33 0
16 24 34 0
-16 -24 -34 0
21 24 35 0
-21 -24 -35 0
2 25 31 0
-2 -25 -31 0
7 25 32 0
-7 -25 -32 0
12 25 33 0
-12 -25 -33 0
17 25 34 0
-17 -25 -34 0
22 25 35 0
-22 -25 -35 0
3 26 31 0
-3 -26 -31 0
8 26 32 0
-8 -26 -32 0
13 26 33 0
-13 -26 -33 0
18 26 34 0
-18 -26 -34 0
23 26 35 0
-23 -26 -35 0
4 27 31 0
-4 -27 -31 0
9 27 32 0
-9 -27 -32 0
14 27 33 0
-14 -27 -33 0
19 27 34 0
-19 -27 -34 0
24 27 35 0
-24 -27 -35 0
5 28 31 0
-5 -28 -31 0
10 28 32 0
-10 -28 -32 0
15 28 33 0
-15 -28 -33 0
20 28 34 0
-20 -28 -34 0
25 28 35 0
-25 -28 -35 0
1 29 30 0
-1 -29 -30 0
6 29 31 0
-6 -29 -31 0
11 29 32 0
-11 -29 -32 0
16 29 33 0
-16 -29 -33 0
21 29 34 0
-21 -29 -34 0
26 29 35 0
-26 -29 -35 0
2 30 0
-2 -30 0
7 30 31 0
-7 -30 -31 0
12 30 32 0
-12 -30 -32 0
17 30 33 0
-17 -30 -33 0
22 30 34 0
-22 -30 -34 0
27 30 35 0
-27 -30 -35 0
3 30 31 0
-3 -30 -31 0
8 31 0
-8 -31 0
13 31 32 0
-13 -31 -32 0
18 31 33 0
-18 -31 -33 0
23 31 34 0
-23 -31 -34 0
28 31 35 0
-28 -31 -35 0
4 30 32 0
-4 -30 -32 0
9 31 32 0
-9 -31 -32 0
14 32 0
-14 -32 0
19 32 33 0
-19 -32 -33 0
24 32 34 0
-24 -32 -34 0
29 32 35 0
-29 -32 -35 0
5 30 33 0
-5 -30 -33 0
10 31 33 0
-10 -31 -33 0
15 32 33 0
-15 -32 -33 0
20 33 0
-20 -33 0
25 33 34 0
-25 -33 -34 0
30 33 35 0
-30 -33 -35 0
1 29 34 0
-1 -29 -34 0
6 30 34 0
-6 -30 -34 0
11 31 34 0
-11 -31 -34 0
16 32 34 0
-16 -32 -34 0
21 33 34 0
-21 -33 -34 0
26 34 0
-26 -34 0
31 34 35 0
-31 -34 -35 0
2 29 35 0
-2 -29 -35 0
7 30 35 0
-7 -30 -35 0
12 31 35 0
-12 -31 -35 0
17 32 35 0
-17 -32 -35 0
22 33 35 0
-22 -33 -35 0
27 34 35 0
-27 -34 -35 0
32 35 0
-32 -35 0
