certificates/rado_a5_c178_N35.drat
-35 0
32 0
-14 0
11 0
17 0
-29 0
26 0
2 0
-8 0
-34 0
-30 0
-20 0
5 0
16 0
31 0
27 0
22 0
6 0
1 0
21 0
33 0
7 0
12 0
23 0
28 0
-18 0
0
